50 8
855 733
484 444
788 183
389 419
659 335
773 763
753 671
455 582
900 725
284 830
821 930
913 760
241 582
548 328
720 307
373 305
641 391
820 736
523 686
759 362
831 597
777 67
670 305
666 367
811 739
459 420
841 762
723 346
761 588
762 253
812 764
698 309
477 405
776 764
245 654
517 850
556 427
298 699
217 464
808 771
430 505
704 576
799 740
900 161
686 915
426 730
817 848
746 253
291 537
419 845
